# Node Net
 20   1
1620   1
3569   1
2281   1
 16   2
 30   2
2041   2
2640   2
 34   3
 43   3
 33   3
3591   3
1261   4
3300   4
900   4
 23   4
 46   5
3563   5
3567   5
 59   5
3576   6
3546   6
1861   6
 29   7
1320   7
 58   7
3241   8
3001   8
3581   8
3553   9
  9   9
3560   9
2701  10
840  10
3589  10
 56  11
2401  11
 45  11
361  12
3420  12
  3  12
 14  13
3587  13
2761  13
2280  14
3596  14
1561  14
300  15
 28  15
 26  15
